InboundTrucks  = 80;
OutboundTrucks = 40;
InboundDoors   = 7;
OutboundDoors  = 7;
ReleaseTime    = [25,58,14,22,0,80,80,37,29,51,26,51,69,113,57,7,81,80,22,16,13,104,31,114,3,30,73,32,6,26,18,44,41,104,40,66,113,72,95,27,78,43,83,50,69,80,56,18,60,6,94,56,78,42,68,24,40,69,89,5,100,11,87,60,49,86,73,61,66,14,84,10,18,39,60,80,64,51,54,43];
UnloadTime     = [35,23,27,15,13,24,22,10,38,29,22,31,10,37,14,41,26,31,31,17,35,25,24,12,32,38,30,29,17,10,45,30,35,21,11,37,37,34,25,32,10,15,25,32,22,25,41,17,26,42,10,31,41,31,24,36,21,30,42,23,42,11,20,16,22,40,45,33,45,24,21,21,13,45,32,35,17,35,31,44];
LoadTime       = [16,27,5,20,26,19,12,21,28,23,27,12,20,12,18,28,28,23,15,30,6,20,22,21,16,28,24,22,15,16,14,11,6,17,29,16,9,24,8,22];
TransferTime   = [| 0,0,0,39,0,0,0,35,0,0,0,0,34,0,0,39,45,12,0,20,0,20,48,0,0,0,0,0,0,0,0,0,0,0,0,0,12,25,0,0 | 26,39,0,0,0,0,0,31,0,11,0,0,0,0,0,0,0,0,0,0,0,0,0,0,14,0,0,0,0,11,0,0,0,26,21,0,34,0,0,0 | 0,0,0,0,20,0,45,0,47,0,0,12,33,43,47,0,0,0,0,14,36,0,18,0,28,0,0,37,23,0,0,11,0,45,0,0,0,0,0,18 | 0,17,39,0,0,0,0,0,0,0,36,0,0,0,20,0,0,0,0,0,0,0,0,0,0,0,0,0,0,0,0,17,0,0,0,0,0,0,0,36 | 0,20,0,0,0,0,10,0,0,0,0,45,0,0,0,0,0,0,0,0,0,0,12,0,15,41,0,47,24,0,22,0,0,0,13,0,17,0,35,0 | 0,0,27,0,0,0,0,16,0,0,0,0,20,10,0,0,0,0,0,0,0,0,14,0,0,17,0,0,0,39,0,50,0,0,0,20,14,10,34,50 | 23,0,0,0,0,0,0,0,48,0,0,0,0,26,0,22,0,0,0,0,0,0,44,0,0,13,0,0,0,43,0,26,0,0,0,28,0,0,0,17 | 0,0,0,0,0,18,0,46,0,0,45,38,0,0,0,0,13,0,0,26,29,0,0,0,10,0,35,0,0,0,31,32,18,0,0,30,31,0,0,0 | 10,0,31,0,0,0,0,0,49,0,0,50,0,25,0,14,0,17,0,0,0,0,42,0,0,0,0,0,0,0,0,0,0,0,41,0,0,0,0,0 | 0,0,22,0,0,0,21,0,0,28,0,20,0,0,0,0,0,45,0,23,28,0,47,0,0,0,0,0,0,0,0,0,29,0,0,0,0,32,36,0 | 0,0,0,0,30,22,45,0,0,0,0,34,0,0,24,0,0,0,0,0,0,0,0,21,0,0,0,0,0,41,46,0,0,0,0,0,0,32,45,0 | 26,15,0,0,0,0,0,0,0,0,0,35,0,16,0,0,0,27,0,0,0,0,30,0,0,0,0,0,31,0,18,0,0,0,12,0,0,49,0,0 | 28,0,0,0,0,0,0,50,0,0,0,0,0,0,0,0,0,0,0,0,0,0,0,0,0,0,45,0,0,0,0,0,0,0,0,0,0,15,0,0 | 29,12,0,41,12,0,0,0,40,0,0,0,0,0,0,0,0,31,43,0,0,0,0,41,0,0,0,0,0,17,0,0,28,0,31,0,0,0,0,0 | 0,0,0,0,49,0,41,11,0,0,0,0,24,0,0,0,0,0,0,17,0,0,24,0,0,0,0,0,0,0,0,0,24,0,0,0,0,0,48,0 | 0,32,0,35,0,0,10,0,22,0,0,0,0,29,0,0,0,0,0,0,0,0,14,0,24,0,13,0,0,0,50,0,0,0,0,19,0,0,0,0 | 0,45,42,0,0,0,45,0,0,0,37,0,34,0,0,0,41,50,21,0,0,0,0,0,39,0,31,0,44,0,0,48,0,0,0,44,0,0,0,0 | 0,50,0,18,0,46,0,0,0,37,0,0,19,0,0,0,0,0,0,21,0,0,30,0,0,0,0,21,50,0,0,0,0,0,41,0,47,0,44,0 | 0,0,0,0,46,0,0,0,0,0,0,0,0,0,0,36,0,0,0,32,0,12,0,18,0,0,25,0,0,0,0,38,29,0,18,0,0,0,32,0 | 0,12,0,0,0,0,0,0,0,48,0,0,0,46,0,0,0,24,0,20,0,0,42,0,23,0,0,37,0,0,0,0,0,0,0,0,0,0,11,0 | 0,0,0,0,0,24,32,0,0,0,48,0,0,0,0,0,24,22,35,46,0,0,0,0,0,46,42,0,0,0,0,0,0,0,30,0,0,0,0,41 | 0,0,47,0,0,0,0,0,0,0,0,49,0,0,0,0,0,0,0,13,49,0,0,0,0,0,0,0,0,20,0,35,0,0,0,0,20,0,0,46 | 0,0,40,0,0,0,0,0,0,0,46,0,31,0,0,0,0,0,0,0,0,0,29,0,50,0,0,0,38,0,0,18,0,0,0,0,46,40,0,0 | 0,0,0,0,0,0,0,0,0,0,37,0,0,0,0,0,0,0,28,21,0,24,0,0,0,0,0,0,0,0,36,41,0,0,29,0,0,0,0,0 | 0,0,0,46,0,0,0,0,0,45,0,49,24,0,0,0,0,0,0,0,44,24,0,0,0,0,0,22,0,12,0,0,14,0,0,0,0,0,0,0 | 28,0,0,11,0,0,0,0,49,0,0,37,0,31,0,0,0,0,0,0,0,0,45,0,11,0,0,19,22,0,0,26,0,42,0,0,0,0,24,0 | 0,28,0,0,0,0,0,0,32,0,0,0,17,0,0,0,0,0,20,0,0,0,0,0,44,0,0,0,0,0,37,15,0,43,0,0,0,38,23,0 | 0,22,0,13,0,0,0,0,42,20,0,0,0,47,35,0,40,0,0,38,0,0,0,0,38,0,0,38,0,0,0,0,0,0,0,0,0,29,0,0 | 0,0,0,0,0,0,0,0,27,0,0,0,0,0,0,13,41,0,0,0,48,0,0,33,0,0,42,0,46,0,0,0,0,0,38,0,0,0,0,0 | 28,45,10,25,0,0,0,0,0,0,0,32,40,0,0,0,0,0,41,0,0,0,11,0,0,49,0,0,0,0,0,0,0,47,0,0,0,0,0,0 | 49,0,0,0,0,0,0,37,0,16,47,0,24,0,0,15,0,0,0,0,0,0,23,0,0,0,0,0,0,0,25,0,0,0,0,0,0,34,0,0 | 0,0,0,0,0,0,0,0,0,0,0,0,0,0,0,0,47,0,0,15,45,0,0,0,0,0,0,18,0,0,0,0,0,24,0,0,0,16,0,21 | 0,0,0,0,0,0,0,0,0,0,0,0,0,41,0,0,0,18,21,0,18,32,0,0,18,32,0,0,0,0,0,45,23,0,20,0,0,0,0,0 | 0,0,0,0,0,0,0,0,0,0,0,0,0,0,0,0,0,0,0,0,0,0,0,0,0,0,0,0,0,14,0,47,0,0,0,14,20,34,0,0 | 44,0,0,0,0,0,0,0,13,0,0,0,0,0,0,0,0,47,0,0,25,0,0,0,0,29,0,43,0,14,0,0,39,0,14,0,0,0,28,19 | 0,31,46,0,0,0,0,0,0,0,0,0,0,0,0,0,0,0,18,0,0,0,18,17,45,0,31,0,0,0,0,0,0,0,0,10,0,50,0,45 | 0,0,10,0,0,0,0,0,30,0,0,0,20,0,48,0,0,0,48,0,15,43,23,0,0,0,0,0,31,0,19,0,0,26,0,0,0,0,27,11 | 0,26,0,0,50,0,0,0,36,0,0,0,0,0,0,28,0,0,49,0,47,0,32,0,0,0,27,0,0,37,0,0,0,0,0,22,42,23,0,24 | 0,0,0,0,0,0,0,0,0,0,0,0,50,0,0,0,0,0,0,0,0,27,0,0,0,30,26,0,0,0,0,0,23,0,46,0,0,0,0,41 | 0,13,15,0,0,0,0,0,0,0,0,15,27,0,40,0,0,0,0,0,0,0,43,0,0,27,0,0,13,0,0,0,0,0,0,28,0,45,20,0 | 24,0,0,0,0,26,0,0,0,0,0,0,41,35,45,0,0,0,41,0,0,0,40,0,0,24,0,12,0,0,34,0,12,25,0,0,0,15,0,50 | 13,11,0,32,0,0,0,23,0,0,27,0,0,39,0,30,23,0,0,0,0,0,45,11,0,0,33,0,45,11,0,0,34,0,17,0,0,0,0,0 | 0,0,0,0,0,0,0,0,0,0,0,0,0,0,0,0,0,0,0,0,0,0,0,0,0,0,0,0,50,0,0,0,0,39,0,30,0,0,42,0 | 0,0,0,0,0,0,0,0,0,0,0,0,0,0,0,0,0,0,0,0,0,0,0,47,0,0,0,0,0,0,0,0,0,0,0,0,0,0,0,0 | 0,0,0,10,0,33,0,0,0,0,0,31,0,0,0,0,0,0,0,0,46,47,0,0,0,0,0,14,0,0,34,0,17,0,0,0,42,0,19,0 | 0,0,0,0,0,0,0,0,0,0,0,0,0,0,0,0,0,0,0,35,0,0,0,0,0,40,0,0,0,0,0,0,50,0,0,0,0,0,0,0 | 0,0,0,0,40,0,0,0,0,0,0,0,0,0,0,0,0,10,39,0,0,22,0,0,0,0,0,0,17,41,0,0,0,0,33,0,0,35,0,0 | 20,0,0,32,37,0,0,0,32,0,0,0,0,0,0,0,20,0,0,0,0,0,0,26,0,0,19,0,0,10,0,0,18,0,0,0,0,39,0,32 | 0,0,0,0,0,0,31,0,0,20,43,17,0,0,0,0,0,0,22,0,0,0,25,0,0,0,0,0,0,0,0,41,0,34,0,0,0,0,0,0 | 0,38,0,0,38,0,0,0,27,0,39,0,0,0,12,0,0,28,0,0,19,0,32,0,0,17,0,0,0,0,0,0,0,0,0,0,0,34,0,23 | 0,0,0,0,0,45,0,0,21,41,41,0,31,0,0,0,39,0,0,0,0,0,18,0,0,0,0,0,20,0,0,0,0,0,46,49,0,0,0,0 | 0,0,0,0,18,0,0,0,0,0,21,0,45,0,0,0,0,0,40,44,0,0,0,0,0,0,0,0,25,0,11,0,0,0,19,0,0,0,44,10 | 39,10,50,0,34,0,0,0,17,0,0,44,0,44,0,15,0,12,0,50,17,0,0,0,0,0,0,0,0,0,0,0,0,15,0,0,0,0,0,44 | 0,0,0,0,13,49,49,0,0,0,15,0,47,0,0,0,0,0,0,0,0,39,0,0,0,0,0,23,42,39,0,35,40,48,20,0,0,0,0,19 | 31,32,0,0,39,0,0,0,14,0,0,45,32,31,0,0,33,0,0,0,0,0,0,0,0,0,0,0,0,34,0,43,0,0,30,0,0,24,0,29 | 0,0,0,29,0,0,42,0,0,0,0,48,0,0,0,0,0,0,27,0,0,0,0,0,0,0,0,0,0,0,0,0,0,0,35,24,0,0,0,0 | 0,0,25,0,0,0,0,0,0,0,0,0,39,47,19,0,0,35,0,0,29,0,25,0,0,0,0,45,11,12,24,40,0,0,0,0,0,0,0,24 | 0,18,0,28,0,0,0,0,0,0,0,25,0,0,0,0,13,0,0,31,0,23,0,0,38,18,16,0,0,0,0,0,0,0,0,0,0,38,10,0 | 0,0,0,45,0,0,0,40,0,0,0,0,0,0,0,0,0,33,29,0,0,0,0,0,0,0,17,0,0,0,0,0,0,34,0,12,0,0,0,0 | 0,0,0,0,12,50,0,0,0,0,0,0,50,0,0,0,0,29,10,23,0,0,0,0,0,0,0,16,0,0,32,36,0,0,0,21,0,0,0,0 | 0,47,0,0,38,29,0,0,0,33,0,0,0,0,0,48,0,0,0,0,0,0,0,0,0,0,46,0,0,0,0,0,0,0,0,27,0,0,0,0 | 0,27,0,0,0,0,0,43,0,0,12,0,0,0,0,0,14,0,0,0,36,41,50,0,0,24,0,0,0,0,0,12,0,0,0,10,0,19,42,0 | 0,0,27,0,0,0,12,0,0,0,0,33,0,0,0,0,42,0,0,0,10,21,17,0,0,0,50,0,0,17,0,0,49,25,0,0,0,0,0,0 | 0,0,49,0,0,0,24,0,10,0,0,36,36,0,0,0,0,42,0,0,0,0,0,0,0,22,0,17,0,46,0,0,0,28,0,0,0,0,0,27 | 0,0,0,41,19,36,0,0,0,0,0,0,0,0,0,0,40,19,0,44,0,49,0,0,22,0,23,0,11,22,0,10,0,23,0,0,0,0,0,24 | 0,0,0,0,0,0,0,38,0,0,0,0,0,0,0,0,0,0,0,0,0,35,0,0,0,0,0,0,0,29,0,0,0,0,49,0,0,16,0,26 | 0,0,40,15,0,0,0,0,34,0,40,0,0,0,0,0,0,0,0,0,0,0,0,0,0,23,0,0,0,0,29,49,0,43,24,41,0,0,0,0 | 0,0,0,0,0,0,0,0,0,11,0,0,0,0,0,0,0,21,39,45,0,21,0,0,20,0,33,27,42,0,0,36,0,0,0,49,0,0,0,0 | 0,27,0,0,0,0,24,0,0,15,0,18,0,0,42,0,0,0,0,0,0,25,19,34,0,0,0,48,23,0,0,0,0,0,0,0,0,0,38,44 | 20,0,0,0,0,43,0,0,17,0,0,0,41,46,0,10,16,44,0,10,0,27,0,17,0,0,0,0,0,0,0,0,0,0,0,0,0,0,0,0 | 48,0,35,17,38,0,13,0,0,0,0,0,0,49,0,0,0,0,0,35,0,0,0,43,0,0,0,0,0,0,0,37,0,0,0,0,25,0,0,0 | 0,0,11,0,0,22,0,0,0,0,0,0,0,0,0,0,0,0,0,0,27,0,0,0,24,0,0,0,43,23,0,0,48,0,0,33,0,0,23,0 | 0,42,0,0,0,0,0,32,0,0,40,0,0,0,0,0,30,0,25,0,0,0,13,0,0,0,0,11,18,0,23,26,0,29,0,49,20,0,0,0 | 38,0,0,44,0,0,37,0,0,0,0,34,0,0,12,15,45,29,0,24,0,23,0,0,40,0,0,0,14,0,0,0,0,0,0,0,0,0,0,0 | 0,0,0,0,0,22,0,0,0,0,0,0,0,0,0,0,0,0,0,0,0,0,0,0,0,0,29,0,45,0,0,35,0,0,0,0,0,0,14,40 | 0,0,0,0,0,0,0,0,0,0,0,0,20,0,0,0,23,28,33,32,0,0,0,43,0,0,36,0,22,0,0,0,0,24,14,0,0,0,44,0 | 0,0,0,50,0,0,0,39,0,0,0,0,0,0,45,0,0,0,0,0,0,0,0,0,0,0,0,0,0,0,13,0,14,25,15,0,0,0,25,0 | 0,0,48,0,0,17,0,39,28,0,0,0,0,10,32,28,24,0,0,0,0,28,20,27,0,27,0,0,0,13,29,0,0,0,0,0,0,44,0,0 | 11,0,0,27,0,47,0,0,0,0,33,31,0,0,0,0,0,0,38,0,0,0,0,0,0,0,0,0,0,0,0,0,0,0,32,0,0,0,0,0 | 0,0,25,0,37,0,0,0,0,0,16,0,25,0,13,0,19,0,48,25,0,0,0,0,0,28,0,0,0,0,0,23,0,0,0,0,46,26,0,21 |];
